(set-logic QF_NRA)
(set-info :source |Benchmarks generated from hycomp (https://es-static.fbk.eu/tools/hycomp/). BMC instances of non-linear hybrid automata taken from: Alessandro Cimatti, Sergio Mover, Stefano Tonetta, A quantifier-free SMT encoding of non-linear hybrid automata, FMCAD 2012 and Alessandro Cimatti, Sergio Mover, Stefano Tonetta, Quantier-free encoding of invariants for Hybrid Systems, Formal Methods in System Design. This instance solves a BMC problem of depth 1 and uses the quantifier free encoding with equivalences encoding. Contacts: Sergio Mover (mover@fbk.eu), Stefano Tonetta (tonettas@fbk.eu), Alessandro Cimatti (cimatti@fbk.eu).|)
(set-info :smt-lib-version 2.0)
(set-info :category "industrial")
(set-info :status unsat)
;; MathSAT API call trace
;; generated on Mon Mar 19 10:47:34 2012
(declare-fun b.x__AT0 () Real)
(declare-fun b.speed_y__AT1 () Real)
(declare-fun b.delta__AT1 () Real)
(declare-fun b.bool_atom__AT0 () Bool)
(declare-fun b.y__AT0 () Real)
(declare-fun b.EVENT.1__AT1 () Bool)
(declare-fun b.EVENT.0__AT1 () Bool)
(declare-fun b.counter.0__AT0 () Bool)
(declare-fun b.delta__AT0 () Real)
(declare-fun b.counter.1__AT0 () Bool)
(declare-fun b.y__AT1 () Real)
(declare-fun b.EVENT.0__AT0 () Bool)
(declare-fun b.speed_y__AT0 () Real)
(declare-fun b.event_is_timed__AT0 () Bool)
(declare-fun b.counter.3__AT0 () Bool)
(declare-fun b.speed_x__AT1 () Real)
(declare-fun b.time__AT1 () Real)
(declare-fun b.x__AT1 () Real)
(declare-fun b.event_is_timed__AT1 () Bool)
(declare-fun b.counter.0__AT1 () Bool)
(declare-fun b.EVENT.1__AT0 () Bool)
(declare-fun b.speed_loss__AT0 () Real)
(declare-fun b.counter.1__AT1 () Bool)
(declare-fun b.speed_x__AT0 () Real)
(declare-fun b.counter.2__AT1 () Bool)
(declare-fun b.time__AT0 () Real)
(declare-fun b.counter.2__AT0 () Bool)
(declare-fun b.counter.3__AT1 () Bool)
(declare-fun b.bool_atom__AT1 () Bool)
(assert (let ((.def_474 (* (- 49.0) b.delta__AT1)))
(let ((.def_475 (* 5.0 b.speed_y__AT1)))
(let ((.def_477 (+ .def_475 .def_474)))
(let ((.def_480 (<= 0.0 .def_477)))
(let ((.def_408 (* b.y__AT1 b.speed_y__AT1)))
(let ((.def_448 (* 2.0 .def_408)))
(let ((.def_449 (+ b.speed_x__AT1 .def_448)))
(let ((.def_453 (<= .def_449 0.0 )))
(let ((.def_481 (and .def_453 .def_480)))
(let ((.def_478 (<= .def_477 0.0 )))
(let ((.def_450 (<= 0.0 .def_449)))
(let ((.def_479 (and .def_450 .def_478)))
(let ((.def_482 (or .def_479 .def_481)))
(let ((.def_397 (* (- (/ 49 10)) b.speed_y__AT1)))
(let ((.def_426 (* 3.0 .def_397)))
(let ((.def_458 (* 2.0 .def_426)))
(let ((.def_459 (* b.delta__AT1 .def_458)))
(let ((.def_460 (* (- 50.0) .def_459)))
(let ((.def_392 (* b.delta__AT1 b.delta__AT1)))
(let ((.def_457 (* (- 7203.0) .def_392)))
(let ((.def_461 (+ .def_457 .def_460)))
(let ((.def_270 (* b.speed_y__AT1 b.speed_y__AT1)))
(let ((.def_462 (* (- 50.0) .def_270)))
(let ((.def_466 (+ .def_462 .def_461)))
(let ((.def_464 (* 490.0 b.y__AT1)))
(let ((.def_467 (+ .def_464 .def_466)))
(let ((.def_470 (<= 0.0 .def_467)))
(let ((.def_471 (and .def_453 .def_470)))
(let ((.def_468 (<= .def_467 0.0 )))
(let ((.def_469 (and .def_450 .def_468)))
(let ((.def_472 (or .def_469 .def_471)))
(let ((.def_404 (* (- (/ 49 10)) b.y__AT1)))
(let ((.def_434 (* 2.0 .def_404)))
(let ((.def_435 (* b.delta__AT1 .def_434)))
(let ((.def_436 (* 50.0 .def_435)))
(let ((.def_430 (* 2.0 .def_270)))
(let ((.def_431 (* b.delta__AT1 .def_430)))
(let ((.def_432 (* 25.0 .def_431)))
(let ((.def_442 (+ .def_432 .def_436)))
(let ((.def_427 (* .def_392 .def_426)))
(let ((.def_428 (* 50.0 .def_427)))
(let ((.def_443 (+ .def_428 .def_442)))
(let ((.def_438 (* 50.0 .def_408)))
(let ((.def_444 (+ .def_438 .def_443)))
(let ((.def_393 (* b.delta__AT1 .def_392)))
(let ((.def_425 (* 2401.0 .def_393)))
(let ((.def_445 (+ .def_425 .def_444)))
(let ((.def_440 (* 25.0 b.speed_x__AT1)))
(let ((.def_446 (+ .def_440 .def_445)))
(let ((.def_452 (<= .def_446 0.0 )))
(let ((.def_454 (and .def_452 .def_453)))
(let ((.def_447 (<= 0.0 .def_446)))
(let ((.def_451 (and .def_447 .def_450)))
(let ((.def_455 (or .def_451 .def_454)))
(let ((.def_409 (* b.delta__AT1 .def_408)))
(let ((.def_410 (* 200.0 .def_409)))
(let ((.def_405 (* .def_392 .def_404)))
(let ((.def_406 (* 200.0 .def_405)))
(let ((.def_416 (+ .def_406 .def_410)))
(let ((.def_401 (* .def_270 .def_392)))
(let ((.def_402 (* 100.0 .def_401)))
(let ((.def_417 (+ .def_402 .def_416)))
(let ((.def_398 (* .def_393 .def_397)))
(let ((.def_399 (* 200.0 .def_398)))
(let ((.def_418 (+ .def_399 .def_417)))
(let ((.def_394 (* b.delta__AT1 .def_393)))
(let ((.def_395 (* 2401.0 .def_394)))
(let ((.def_419 (+ .def_395 .def_418)))
(let ((.def_390 (* b.speed_x__AT1 b.delta__AT1)))
(let ((.def_391 (* 100.0 .def_390)))
(let ((.def_420 (+ .def_391 .def_419)))
(let ((.def_375 (* b.y__AT1 b.y__AT1)))
(let ((.def_412 (* 100.0 .def_375)))
(let ((.def_421 (+ .def_412 .def_420)))
(let ((.def_414 (* 100.0 b.x__AT1)))
(let ((.def_422 (+ .def_414 .def_421)))
(let ((.def_423 (<= 0.0 .def_422)))
(let ((.def_376 (+ b.x__AT1 .def_375)))
(let ((.def_377 (<= 0.0 .def_376)))
(let ((.def_424 (and .def_377 .def_423)))
(let ((.def_456 (and .def_424 .def_455)))
(let ((.def_473 (and .def_456 .def_472)))
(let ((.def_483 (and .def_473 .def_482)))
(let ((.def_73 (<= b.speed_loss__AT0 (/ 1 2))))
(let ((.def_70 (<= (/ 1 10) b.speed_loss__AT0)))
(let ((.def_74 (and .def_70 .def_73)))
(let ((.def_484 (and .def_74 .def_483)))
(let ((.def_43 (not b.counter.0__AT0)))
(let ((.def_41 (not b.counter.1__AT0)))
(let ((.def_44 (and .def_41 .def_43)))
(let ((.def_385 (or .def_44 b.counter.3__AT0)))
(let ((.def_382 (or .def_44 b.counter.2__AT0)))
(let ((.def_46 (not b.counter.2__AT0)))
(let ((.def_381 (or .def_41 .def_46)))
(let ((.def_383 (and .def_381 .def_382)))
(let ((.def_49 (not b.counter.3__AT0)))
(let ((.def_384 (or .def_49 .def_383)))
(let ((.def_386 (and .def_384 .def_385)))
(let ((.def_378 (and .def_74 .def_377)))
(let ((.def_372 (not b.EVENT.0__AT1)))
(let ((.def_370 (not b.EVENT.1__AT1)))
(let ((.def_373 (or .def_370 .def_372)))
(let ((.def_9 (not b.counter.0__AT1)))
(let ((.def_6 (not b.counter.1__AT1)))
(let ((.def_363 (or .def_6 .def_9)))
(let ((.def_367 (or b.counter.3__AT1 .def_363)))
(let ((.def_364 (or b.counter.2__AT1 .def_363)))
(let ((.def_4 (not b.counter.2__AT1)))
(let ((.def_362 (or .def_4 .def_9)))
(let ((.def_365 (and .def_362 .def_364)))
(let ((.def_14 (not b.counter.3__AT1)))
(let ((.def_366 (or .def_14 .def_365)))
(let ((.def_368 (and .def_366 .def_367)))
(let ((.def_374 (and .def_368 .def_373)))
(let ((.def_379 (and .def_374 .def_378)))
(let ((.def_357 (<= 0.0 b.delta__AT0)))
(let ((.def_62 (not b.EVENT.0__AT0)))
(let ((.def_60 (not b.EVENT.1__AT0)))
(let ((.def_193 (and .def_60 .def_62)))
(let ((.def_195 (not .def_193)))
(let ((.def_358 (or .def_195 .def_357)))
(let ((.def_359 (or b.EVENT.1__AT0 .def_358)))
(let ((.def_235 (= b.bool_atom__AT0 b.bool_atom__AT1)))
(let ((.def_230 (= b.counter.0__AT1 b.counter.0__AT0)))
(let ((.def_228 (= b.counter.1__AT1 b.counter.1__AT0)))
(let ((.def_226 (= b.counter.2__AT1 b.counter.2__AT0)))
(let ((.def_225 (= b.counter.3__AT1 b.counter.3__AT0)))
(let ((.def_227 (and .def_225 .def_226)))
(let ((.def_229 (and .def_227 .def_228)))
(let ((.def_231 (and .def_229 .def_230)))
(let ((.def_353 (and .def_231 .def_235)))
(let ((.def_354 (or .def_195 .def_353)))
(let ((.def_355 (or b.EVENT.1__AT0 .def_354)))
(let ((.def_335 (* b.speed_y__AT0 b.delta__AT0)))
(let ((.def_336 (* 10.0 .def_335)))
(let ((.def_340 (* (- 10.0) b.y__AT1)))
(let ((.def_344 (+ .def_340 .def_336)))
(let ((.def_83 (* b.delta__AT0 b.delta__AT0)))
(let ((.def_337 (* (- 49.0) .def_83)))
(let ((.def_345 (+ .def_337 .def_344)))
(let ((.def_342 (* 10.0 b.y__AT0)))
(let ((.def_346 (+ .def_342 .def_345)))
(let ((.def_347 (= .def_346 0.0 )))
(let ((.def_330 (* (- 5.0) b.speed_y__AT1)))
(let ((.def_180 (* (- 49.0) b.delta__AT0)))
(let ((.def_331 (+ .def_180 .def_330)))
(let ((.def_182 (* 5.0 b.speed_y__AT0)))
(let ((.def_332 (+ .def_182 .def_331)))
(let ((.def_333 (= .def_332 0.0 )))
(let ((.def_325 (* (- 1.0) b.x__AT1)))
(let ((.def_80 (* b.speed_x__AT0 b.delta__AT0)))
(let ((.def_326 (+ .def_80 .def_325)))
(let ((.def_327 (+ b.x__AT0 .def_326)))
(let ((.def_328 (= .def_327 0.0 )))
(let ((.def_334 (and .def_328 .def_333)))
(let ((.def_348 (and .def_334 .def_347)))
(let ((.def_220 (= b.speed_x__AT0 b.speed_x__AT1)))
(let ((.def_349 (and .def_220 .def_348)))
(let ((.def_350 (or .def_195 .def_349)))
(let ((.def_217 (= b.y__AT0 b.y__AT1)))
(let ((.def_214 (= b.x__AT0 b.x__AT1)))
(let ((.def_319 (and .def_214 .def_217)))
(let ((.def_320 (and .def_220 .def_319)))
(let ((.def_223 (= b.speed_y__AT0 b.speed_y__AT1)))
(let ((.def_321 (and .def_223 .def_320)))
(let ((.def_316 (= b.delta__AT0 0.0 )))
(let ((.def_317 (and .def_193 .def_316)))
(let ((.def_318 (not .def_317)))
(let ((.def_322 (or .def_318 .def_321)))
(let ((.def_323 (or b.EVENT.1__AT0 .def_322)))
(let ((.def_308 (and .def_220 .def_223)))
(let ((.def_309 (and .def_231 .def_308)))
(let ((.def_310 (or b.bool_atom__AT0 .def_309)))
(let ((.def_284 (or .def_9 b.counter.0__AT0)))
(let ((.def_283 (or b.counter.0__AT1 .def_43)))
(let ((.def_285 (and .def_283 .def_284)))
(let ((.def_286 (and .def_6 .def_285)))
(let ((.def_287 (or b.counter.1__AT0 .def_286)))
(let ((.def_282 (or b.counter.1__AT1 .def_41)))
(let ((.def_288 (and .def_282 .def_287)))
(let ((.def_299 (and .def_4 .def_288)))
(let ((.def_300 (or b.counter.2__AT0 .def_299)))
(let ((.def_294 (and .def_6 .def_43)))
(let ((.def_295 (or b.counter.1__AT0 .def_294)))
(let ((.def_296 (and .def_282 .def_295)))
(let ((.def_297 (and b.counter.2__AT1 .def_296)))
(let ((.def_298 (or .def_46 .def_297)))
(let ((.def_301 (and .def_298 .def_300)))
(let ((.def_302 (and b.counter.3__AT1 .def_301)))
(let ((.def_303 (or b.counter.3__AT0 .def_302)))
(let ((.def_289 (and b.counter.2__AT1 .def_288)))
(let ((.def_290 (or b.counter.2__AT0 .def_289)))
(let ((.def_278 (or b.counter.1__AT1 b.counter.1__AT0)))
(let ((.def_276 (and .def_6 b.counter.0__AT1)))
(let ((.def_277 (or .def_41 .def_276)))
(let ((.def_279 (and .def_277 .def_278)))
(let ((.def_280 (and .def_4 .def_279)))
(let ((.def_281 (or .def_46 .def_280)))
(let ((.def_291 (and .def_281 .def_290)))
(let ((.def_292 (and .def_14 .def_291)))
(let ((.def_293 (or .def_49 .def_292)))
(let ((.def_304 (and .def_293 .def_303)))
(let ((.def_265 (* b.speed_x__AT0 b.speed_x__AT0)))
(let ((.def_97 (* b.speed_y__AT0 b.speed_y__AT0)))
(let ((.def_266 (+ .def_97 .def_265)))
(let ((.def_251 (* (- 1.0) b.speed_loss__AT0)))
(let ((.def_252 (+ 1.0 .def_251)))
(let ((.def_264 (* .def_252 .def_252)))
(let ((.def_267 (* .def_264 .def_266)))
(let ((.def_268 (* (- 1.0) .def_267)))
(let ((.def_272 (+ .def_268 .def_270)))
(let ((.def_263 (* b.speed_x__AT1 b.speed_x__AT1)))
(let ((.def_273 (+ .def_263 .def_272)))
(let ((.def_274 (= .def_273 0.0 )))
(let ((.def_241 (* 2.0 b.y__AT0)))
(let ((.def_255 (* .def_241 .def_252)))
(let ((.def_256 (* b.speed_y__AT0 .def_255)))
(let ((.def_253 (* b.speed_x__AT0 .def_252)))
(let ((.def_259 (+ .def_253 .def_256)))
(let ((.def_249 (* 2.0 b.y__AT1)))
(let ((.def_250 (* b.speed_y__AT1 .def_249)))
(let ((.def_260 (+ .def_250 .def_259)))
(let ((.def_261 (+ b.speed_x__AT1 .def_260)))
(let ((.def_262 (= .def_261 0.0 )))
(let ((.def_275 (and .def_262 .def_274)))
(let ((.def_305 (and .def_275 .def_304)))
(let ((.def_248 (not b.bool_atom__AT0)))
(let ((.def_306 (or .def_248 .def_305)))
(let ((.def_242 (* b.speed_y__AT0 .def_241)))
(let ((.def_243 (+ b.speed_x__AT0 .def_242)))
(let ((.def_244 (<= 0.0 .def_243)))
(let ((.def_245 (not .def_244)))
(let ((.def_65 (* b.y__AT0 b.y__AT0)))
(let ((.def_66 (+ b.x__AT0 .def_65)))
(let ((.def_240 (= .def_66 0.0 )))
(let ((.def_246 (and .def_240 .def_245)))
(let ((.def_247 (= b.bool_atom__AT0 .def_246)))
(let ((.def_307 (and .def_247 .def_306)))
(let ((.def_311 (and .def_307 .def_310)))
(let ((.def_312 (and .def_214 .def_311)))
(let ((.def_313 (and .def_217 .def_312)))
(let ((.def_314 (or .def_193 .def_313)))
(let ((.def_315 (or b.EVENT.1__AT0 .def_314)))
(let ((.def_324 (and .def_315 .def_323)))
(let ((.def_351 (and .def_324 .def_350)))
(let ((.def_200 (= b.time__AT0 b.time__AT1)))
(let ((.def_215 (and .def_200 .def_214)))
(let ((.def_218 (and .def_215 .def_217)))
(let ((.def_221 (and .def_218 .def_220)))
(let ((.def_224 (and .def_221 .def_223)))
(let ((.def_232 (and .def_224 .def_231)))
(let ((.def_236 (and .def_232 .def_235)))
(let ((.def_237 (or .def_60 .def_236)))
(let ((.def_204 (* (- 1.0) b.time__AT1)))
(let ((.def_207 (+ b.delta__AT0 .def_204)))
(let ((.def_208 (+ b.time__AT0 .def_207)))
(let ((.def_209 (= .def_208 0.0 )))
(let ((.def_210 (or .def_195 .def_209)))
(let ((.def_211 (or b.EVENT.1__AT0 .def_210)))
(let ((.def_201 (or .def_193 .def_200)))
(let ((.def_202 (or b.EVENT.1__AT0 .def_201)))
(let ((.def_212 (and .def_202 .def_211)))
(let ((.def_238 (and .def_212 .def_237)))
(let ((.def_197 (= .def_195 b.event_is_timed__AT1)))
(let ((.def_194 (= b.event_is_timed__AT0 .def_193)))
(let ((.def_198 (and .def_194 .def_197)))
(let ((.def_239 (and .def_198 .def_238)))
(let ((.def_352 (and .def_239 .def_351)))
(let ((.def_356 (and .def_352 .def_355)))
(let ((.def_360 (and .def_356 .def_359)))
(let ((.def_361 (and .def_60 .def_360)))
(let ((.def_380 (and .def_361 .def_379)))
(let ((.def_387 (and .def_380 .def_386)))
(let ((.def_184 (+ .def_182 .def_180)))
(let ((.def_187 (<= 0.0 .def_184)))
(let ((.def_105 (* b.y__AT0 b.speed_y__AT0)))
(let ((.def_148 (* 2.0 .def_105)))
(let ((.def_149 (+ b.speed_x__AT0 .def_148)))
(let ((.def_153 (<= .def_149 0.0 )))
(let ((.def_188 (and .def_153 .def_187)))
(let ((.def_185 (<= .def_184 0.0 )))
(let ((.def_150 (<= 0.0 .def_149)))
(let ((.def_186 (and .def_150 .def_185)))
(let ((.def_189 (or .def_186 .def_188)))
(let ((.def_92 (* (- (/ 49 10)) b.speed_y__AT0)))
(let ((.def_124 (* 3.0 .def_92)))
(let ((.def_160 (* 2.0 .def_124)))
(let ((.def_161 (* b.delta__AT0 .def_160)))
(let ((.def_163 (* (- 50.0) .def_161)))
(let ((.def_165 (* (- 50.0) .def_97)))
(let ((.def_170 (+ .def_165 .def_163)))
(let ((.def_159 (* (- 7203.0) .def_83)))
(let ((.def_171 (+ .def_159 .def_170)))
(let ((.def_168 (* 490.0 b.y__AT0)))
(let ((.def_172 (+ .def_168 .def_171)))
(let ((.def_175 (<= 0.0 .def_172)))
(let ((.def_176 (and .def_153 .def_175)))
(let ((.def_173 (<= .def_172 0.0 )))
(let ((.def_174 (and .def_150 .def_173)))
(let ((.def_177 (or .def_174 .def_176)))
(let ((.def_101 (* (- (/ 49 10)) b.y__AT0)))
(let ((.def_134 (* 2.0 .def_101)))
(let ((.def_135 (* b.delta__AT0 .def_134)))
(let ((.def_136 (* 50.0 .def_135)))
(let ((.def_129 (* 2.0 .def_97)))
(let ((.def_130 (* b.delta__AT0 .def_129)))
(let ((.def_132 (* 25.0 .def_130)))
(let ((.def_142 (+ .def_132 .def_136)))
(let ((.def_125 (* .def_83 .def_124)))
(let ((.def_127 (* 50.0 .def_125)))
(let ((.def_143 (+ .def_127 .def_142)))
(let ((.def_138 (* 50.0 .def_105)))
(let ((.def_144 (+ .def_138 .def_143)))
(let ((.def_84 (* b.delta__AT0 .def_83)))
(let ((.def_122 (* 2401.0 .def_84)))
(let ((.def_145 (+ .def_122 .def_144)))
(let ((.def_140 (* 25.0 b.speed_x__AT0)))
(let ((.def_146 (+ .def_140 .def_145)))
(let ((.def_152 (<= .def_146 0.0 )))
(let ((.def_154 (and .def_152 .def_153)))
(let ((.def_147 (<= 0.0 .def_146)))
(let ((.def_151 (and .def_147 .def_150)))
(let ((.def_155 (or .def_151 .def_154)))
(let ((.def_106 (* b.delta__AT0 .def_105)))
(let ((.def_107 (* 200.0 .def_106)))
(let ((.def_102 (* .def_83 .def_101)))
(let ((.def_103 (* 200.0 .def_102)))
(let ((.def_113 (+ .def_103 .def_107)))
(let ((.def_98 (* .def_83 .def_97)))
(let ((.def_99 (* 100.0 .def_98)))
(let ((.def_114 (+ .def_99 .def_113)))
(let ((.def_93 (* .def_84 .def_92)))
(let ((.def_95 (* 200.0 .def_93)))
(let ((.def_115 (+ .def_95 .def_114)))
(let ((.def_85 (* b.delta__AT0 .def_84)))
(let ((.def_87 (* 2401.0 .def_85)))
(let ((.def_116 (+ .def_87 .def_115)))
(let ((.def_82 (* 100.0 .def_80)))
(let ((.def_117 (+ .def_82 .def_116)))
(let ((.def_109 (* 100.0 .def_65)))
(let ((.def_118 (+ .def_109 .def_117)))
(let ((.def_111 (* 100.0 b.x__AT0)))
(let ((.def_119 (+ .def_111 .def_118)))
(let ((.def_120 (<= 0.0 .def_119)))
(let ((.def_67 (<= 0.0 .def_66)))
(let ((.def_121 (and .def_67 .def_120)))
(let ((.def_156 (and .def_121 .def_155)))
(let ((.def_178 (and .def_156 .def_177)))
(let ((.def_190 (and .def_178 .def_189)))
(let ((.def_191 (and .def_74 .def_190)))
(let ((.def_75 (and .def_67 .def_74)))
(let ((.def_63 (or .def_60 .def_62)))
(let ((.def_53 (or .def_41 .def_43)))
(let ((.def_57 (or b.counter.3__AT0 .def_53)))
(let ((.def_54 (or b.counter.2__AT0 .def_53)))
(let ((.def_52 (or .def_43 .def_46)))
(let ((.def_55 (and .def_52 .def_54)))
(let ((.def_56 (or .def_49 .def_55)))
(let ((.def_58 (and .def_56 .def_57)))
(let ((.def_64 (and .def_58 .def_63)))
(let ((.def_76 (and .def_64 .def_75)))
(let ((.def_47 (and .def_44 .def_46)))
(let ((.def_50 (and .def_47 .def_49)))
(let ((.def_38 (= b.speed_y__AT0 1.0 )))
(let ((.def_35 (= b.speed_x__AT0 1.0 )))
(let ((.def_31 (= b.y__AT0 10.0 )))
(let ((.def_27 (= b.x__AT0 (- 9.0) )))
(let ((.def_21 (= b.time__AT0 0.0 )))
(let ((.def_23 (and .def_21 b.event_is_timed__AT0)))
(let ((.def_28 (and .def_23 .def_27)))
(let ((.def_32 (and .def_28 .def_31)))
(let ((.def_36 (and .def_32 .def_35)))
(let ((.def_39 (and .def_36 .def_38)))
(let ((.def_51 (and .def_39 .def_50)))
(let ((.def_77 (and .def_51 .def_76)))
(let ((.def_10 (and .def_6 .def_9)))
(let ((.def_16 (or .def_10 b.counter.3__AT1)))
(let ((.def_11 (or b.counter.2__AT1 .def_10)))
(let ((.def_7 (or .def_4 .def_6)))
(let ((.def_12 (and .def_7 .def_11)))
(let ((.def_15 (or .def_12 .def_14)))
(let ((.def_17 (and .def_15 .def_16)))
(let ((.def_18 (not .def_17)))
(let ((.def_78 (and .def_18 .def_77)))
(let ((.def_192 (and .def_78 .def_191)))
(let ((.def_388 (and .def_192 .def_387)))
(let ((.def_485 (and .def_388 .def_484)))
.def_485))))))))))))))))))))))))))))))))))))))))))))))))))))))))))))))))))))))))))))))))))))))))))))))))))))))))))))))))))))))))))))))))))))))))))))))))))))))))))))))))))))))))))))))))))))))))))))))))))))))))))))))))))))))))))))))))))))))))))))))))))))))))))))))))))))))))))))))))))))))))))))))))))))))))))))))))))))))))))))))))))))))))))))))))))))))))))))))))))))))))))))))))))))))))))))))))))))
(check-sat)
(exit)
